NAME: instance_11
TYPE: TSP
COMMENT: 11-city problem
DIMENSION: 11
EDGE_WEIGHT_TYPE: EUC_2D
NODE_COORD_SECTION
0 141 64
1 653 344
2 860 421
3 410 458
4 48 613
5 79 837
6 135 332
7 188 64
8 293 378
9 61 411
10 624 637
EOF
